language ESSENCE' 1.0
letting lastdx=90
letting cage be [
[15,2,9,0,0, 0,0, 0,0, 0,0],
[41,2,4,2,3,1,3,1,4,1,5],
[7,14,3,14,4,0,0, 0,0, 0,0],
[8,14,10,0,0, 0,0, 0,0, 0,0],
[3,2,10,0,0, 0,0, 0,0, 0,0],
[10,16,10,0,0, 0,0, 0,0, 0,0],
[27,13,9,13,8,14,8,14,9,0,0],
[24,9,5,9,6,10,6,0,0, 0,0],
[11,8,12,0,0, 0,0, 0,0, 0,0],
[1,6,9,0,0, 0,0, 0,0, 0,0],
[13,16,3,16,2,0,0, 0,0, 0,0],
[37,5,2,5,1,6,1,7,1,0,0],
[44,14,14,15,14,15,15,14,15,0,0],
[14,2,7,0,0, 0,0, 0,0, 0,0],
[26,14,11,15,11,0,0, 0,0, 0,0],
[51,16,4,15,4,15,3,15,2,14,2],
[20,3,13,2,13,2,14,0,0, 0,0],
[36,12,2,11,2,10,2,10,1,9,1],
[22,13,14,13,13,13,12,13,11,13,10],
[28,10,16,10,15,10,14,11,14,0,0],
[4,15,13,0,0, 0,0, 0,0, 0,0],
[11,4,6,0,0, 0,0, 0,0, 0,0],
[22,14,6,14,5,0,0, 0,0, 0,0],
[15,4,2,4,3,0,0, 0,0, 0,0],
[24,4,14,4,15,0,0, 0,0, 0,0],
[10,11,11,0,0, 0,0, 0,0, 0,0],
[15,5,16,6,16,6,15,0,0, 0,0],
[23,11,3,12,3,13,3,13,2,0,0],
[24,5,15,5,14,0,0, 0,0, 0,0],
[19,16,8,16,9,0,0, 0,0, 0,0],
[48,1,12,2,12,3,12,3,11,2,11],
[5,12,12,0,0, 0,0, 0,0, 0,0],
[27,6,7,5,7,5,6,5,5,6,5],
[13,6,11,0,0, 0,0, 0,0, 0,0],
[7,14,7,0,0, 0,0, 0,0, 0,0],
[39,10,4,9,4,10,3,10,5,0,0],
[24,9,7,10,7,11,7,11,6,0,0],
[37,16,1,15,1,14,1,13,1,0,0],
[23,14,16,15,16,16,16,0,0, 0,0],
[13,9,10,0,0, 0,0, 0,0, 0,0],
[8,11,1,12,1,0,0, 0,0, 0,0],
[44,3,4,3,3,3,2,3,1,4,1],
[43,16,15,16,14,16,13,16,12,16,11],
[56,10,8,9,8,8,8,7,8,6,8],
[5,11,8,0,0, 0,0, 0,0, 0,0],
[24,4,13,5,13,0,0, 0,0, 0,0],
[9,12,4,0,0, 0,0, 0,0, 0,0],
[8,9,9,10,9,0,0, 0,0, 0,0],
[3,8,14,0,0, 0,0, 0,0, 0,0],
[10,2,16,0,0, 0,0, 0,0, 0,0],
[33,2,8,3,8,3,9,3,10,0,0],
[24,15,7,15,8,0,0, 0,0, 0,0],
[28,12,10,12,11,12,9,12,8,12,7],
[26,7,9,8,9,8,10,0,0, 0,0],
[30,3,14,3,15,3,16,4,16,0,0],
[37,6,10,7,10,7,11,8,11,0,0],
[36,12,6,13,6,13,7,0,0, 0,0],
[3,7,12,0,0, 0,0, 0,0, 0,0],
[27,11,5,11,4,0,0, 0,0, 0,0],
[37,15,5,16,5,16,6,15,6,16,7],
[5,1,16,0,0, 0,0, 0,0, 0,0],
[7,2,2,0,0, 0,0, 0,0, 0,0],
[11,7,13,0,0, 0,0, 0,0, 0,0],
[12,1,11,0,0, 0,0, 0,0, 0,0],
[49,11,10,11,9,10,10,10,11,0,0],
[41,7,15,7,14,6,14,6,13,0,0],
[16,2,5,0,0, 0,0, 0,0, 0,0],
[46,11,13,12,13,11,12,10,12,10,13],
[32,1,7,1,6,2,6,3,6,0,0],
[13,6,4,5,4,0,0, 0,0, 0,0],
[40,7,5,7,6,6,6,7,7,8,7],
[43,13,5,12,5,13,4,0,0, 0,0],
[7,4,8,0,0, 0,0, 0,0, 0,0],
[25,1,1,1,2,2,1,0,0, 0,0],
[29,1,8,1,9,1,10,0,0, 0,0],
[32,1,13,1,14,1,15,2,15,0,0],
[21,3,5,4,5,4,4,0,0, 0,0],
[15,3,7,4,7,0,0, 0,0, 0,0],
[11,4,11,4,12,0,0, 0,0, 0,0],
[51,5,3,6,3,6,2,7,2,0,0],
[6,5,11,0,0, 0,0, 0,0, 0,0],
[23,5,12,6,12,0,0, 0,0, 0,0],
[3,7,3,8,3,0,0, 0,0, 0,0],
[7,7,16,0,0, 0,0, 0,0, 0,0],
[1,8,13,0,0, 0,0, 0,0, 0,0],
[25,8,15,8,16,0,0, 0,0, 0,0],
[20,9,11,9,12,9,13,9,14,0,0],
[28,9,15,9,16,0,0, 0,0, 0,0],
[10,11,15,11,16,0,0, 0,0, 0,0],
[24,14,12,14,13,15,12,0,0, 0,0],
[14,15,9,15,10,0,0, 0,0, 0,0]
]
